c G(N,p), N=30, p=0.5, seed=2056
p edge 30 212
e 1 3
e 1 4
e 1 5
e 1 6
e 1 7
e 1 10
e 1 12
e 1 13
e 1 14
e 1 15
e 1 17
e 1 20
e 1 22
e 1 24
e 1 29
e 2 3
e 2 6
e 2 7
e 2 8
e 2 9
e 2 10
e 2 12
e 2 13
e 2 18
e 2 19
e 2 22
e 2 23
e 2 24
e 2 26
e 2 28
e 2 29
e 2 30
e 3 5
e 3 10
e 3 12
e 3 16
e 3 17
e 3 18
e 3 19
e 3 21
e 3 22
e 3 23
e 3 25
e 4 7
e 4 8
e 4 10
e 4 12
e 4 13
e 4 16
e 4 17
e 4 24
e 4 25
e 4 26
e 4 27
e 4 29
e 4 30
e 5 7
e 5 8
e 5 9
e 5 10
e 5 11
e 5 12
e 5 13
e 5 17
e 5 20
e 5 21
e 5 23
e 5 25
e 5 27
e 5 30
e 6 9
e 6 10
e 6 11
e 6 12
e 6 13
e 6 15
e 6 17
e 6 19
e 6 22
e 6 24
e 6 27
e 6 29
e 6 30
e 7 14
e 7 19
e 7 28
e 8 10
e 8 15
e 8 19
e 8 24
e 8 25
e 8 29
e 8 30
e 9 10
e 9 11
e 9 12
e 9 13
e 9 14
e 9 15
e 9 16
e 9 17
e 9 19
e 9 20
e 9 22
e 9 23
e 9 25
e 9 26
e 9 29
e 10 14
e 10 23
e 10 25
e 10 27
e 10 29
e 11 13
e 11 14
e 11 15
e 11 16
e 11 19
e 11 20
e 11 22
e 11 25
e 11 26
e 11 27
e 11 29
e 11 30
e 12 19
e 12 24
e 12 25
e 12 26
e 12 28
e 12 29
e 13 17
e 13 19
e 13 20
e 13 21
e 13 22
e 13 23
e 13 24
e 13 25
e 13 28
e 14 15
e 14 16
e 14 17
e 14 18
e 14 20
e 14 22
e 14 26
e 14 27
e 14 28
e 14 29
e 15 16
e 15 17
e 15 18
e 15 19
e 15 22
e 15 25
e 15 26
e 15 27
e 15 29
e 16 17
e 16 18
e 16 20
e 16 21
e 16 27
e 16 28
e 16 30
e 17 19
e 17 21
e 17 26
e 17 27
e 17 28
e 17 29
e 17 30
e 18 19
e 18 20
e 18 21
e 18 22
e 18 23
e 18 25
e 18 26
e 18 28
e 19 20
e 19 24
e 19 25
e 19 26
e 19 27
e 19 29
e 19 30
e 20 23
e 20 24
e 20 25
e 20 29
e 21 22
e 21 24
e 21 28
e 22 24
e 22 25
e 22 26
e 22 28
e 22 29
e 22 30
e 23 26
e 23 27
e 23 30
e 24 26
e 24 29
e 24 30
e 25 27
e 25 29
e 25 30
e 27 28
e 27 30
