c G(N,p), N=40, p=0.5, seed=3066
p edge 40 415
e 1 2
e 1 7
e 1 10
e 1 11
e 1 14
e 1 15
e 1 18
e 1 20
e 1 22
e 1 24
e 1 27
e 1 29
e 1 30
e 1 31
e 1 32
e 1 34
e 1 35
e 1 37
e 1 38
e 1 39
e 1 40
e 2 3
e 2 5
e 2 6
e 2 10
e 2 13
e 2 15
e 2 16
e 2 17
e 2 19
e 2 20
e 2 22
e 2 23
e 2 24
e 2 26
e 2 27
e 2 29
e 2 31
e 2 32
e 2 33
e 2 36
e 3 5
e 3 10
e 3 13
e 3 14
e 3 18
e 3 19
e 3 20
e 3 24
e 3 25
e 3 26
e 3 27
e 3 30
e 3 31
e 3 32
e 3 35
e 3 36
e 3 37
e 3 39
e 4 5
e 4 6
e 4 9
e 4 10
e 4 11
e 4 13
e 4 15
e 4 17
e 4 18
e 4 20
e 4 22
e 4 26
e 4 27
e 4 28
e 4 31
e 4 33
e 4 36
e 5 7
e 5 8
e 5 9
e 5 11
e 5 17
e 5 19
e 5 23
e 5 27
e 5 28
e 5 29
e 5 30
e 5 31
e 5 32
e 5 34
e 5 37
e 6 7
e 6 14
e 6 15
e 6 17
e 6 18
e 6 20
e 6 22
e 6 25
e 6 26
e 6 27
e 6 28
e 6 30
e 6 33
e 6 34
e 6 38
e 7 9
e 7 11
e 7 13
e 7 14
e 7 18
e 7 19
e 7 21
e 7 22
e 7 24
e 7 25
e 7 26
e 7 27
e 7 32
e 7 35
e 7 37
e 7 38
e 7 39
e 8 10
e 8 14
e 8 15
e 8 16
e 8 19
e 8 20
e 8 21
e 8 25
e 8 26
e 8 29
e 8 31
e 8 34
e 8 35
e 8 36
e 8 38
e 8 40
e 9 11
e 9 13
e 9 14
e 9 15
e 9 17
e 9 22
e 9 25
e 9 27
e 9 28
e 9 34
e 9 37
e 9 38
e 9 39
e 9 40
e 10 12
e 10 13
e 10 15
e 10 16
e 10 18
e 10 19
e 10 20
e 10 21
e 10 24
e 10 26
e 10 27
e 10 28
e 10 31
e 10 32
e 10 33
e 10 34
e 10 36
e 10 37
e 10 39
e 11 13
e 11 14
e 11 17
e 11 19
e 11 20
e 11 21
e 11 22
e 11 25
e 11 26
e 11 28
e 11 30
e 11 31
e 11 32
e 11 33
e 11 34
e 11 39
e 11 40
e 12 13
e 12 14
e 12 15
e 12 21
e 12 22
e 12 26
e 12 30
e 12 35
e 12 36
e 12 37
e 12 38
e 12 40
e 13 14
e 13 15
e 13 16
e 13 17
e 13 19
e 13 20
e 13 21
e 13 25
e 13 26
e 13 27
e 13 31
e 13 32
e 13 33
e 13 36
e 13 37
e 13 38
e 13 39
e 14 17
e 14 18
e 14 20
e 14 23
e 14 25
e 14 26
e 14 27
e 14 29
e 14 30
e 14 32
e 14 35
e 14 36
e 14 38
e 14 39
e 15 18
e 15 19
e 15 20
e 15 21
e 15 23
e 15 24
e 15 26
e 15 27
e 15 28
e 15 29
e 15 30
e 15 31
e 15 32
e 15 34
e 15 35
e 15 36
e 15 37
e 15 38
e 16 18
e 16 19
e 16 20
e 16 23
e 16 24
e 16 27
e 16 28
e 16 32
e 16 33
e 16 34
e 16 35
e 16 36
e 16 37
e 16 38
e 16 39
e 17 18
e 17 19
e 17 20
e 17 22
e 17 24
e 17 25
e 17 26
e 17 27
e 17 29
e 17 30
e 17 36
e 17 37
e 17 39
e 18 19
e 18 22
e 18 24
e 18 26
e 18 28
e 18 30
e 18 31
e 18 32
e 18 33
e 18 34
e 18 35
e 18 36
e 19 20
e 19 23
e 19 24
e 19 25
e 19 26
e 19 29
e 19 31
e 19 32
e 19 33
e 20 22
e 20 25
e 20 26
e 20 27
e 20 29
e 20 30
e 20 33
e 20 36
e 20 37
e 20 39
e 21 23
e 21 24
e 21 26
e 21 27
e 21 29
e 21 30
e 21 31
e 21 32
e 21 35
e 21 36
e 21 38
e 21 39
e 22 23
e 22 26
e 22 29
e 22 30
e 22 31
e 22 32
e 22 33
e 22 35
e 22 38
e 23 24
e 23 25
e 23 26
e 23 27
e 23 29
e 23 32
e 23 33
e 23 34
e 23 35
e 23 36
e 23 37
e 23 38
e 23 39
e 23 40
e 24 26
e 24 27
e 24 28
e 24 29
e 24 31
e 24 33
e 24 36
e 24 37
e 25 26
e 25 31
e 25 33
e 25 34
e 25 38
e 25 39
e 25 40
e 26 30
e 26 32
e 26 33
e 26 38
e 26 40
e 27 29
e 27 30
e 27 33
e 27 35
e 27 36
e 27 37
e 27 39
e 28 30
e 28 34
e 28 37
e 28 38
e 28 39
e 28 40
e 29 31
e 29 32
e 29 35
e 29 36
e 29 37
e 29 39
e 30 31
e 30 32
e 30 33
e 30 35
e 30 36
e 30 38
e 30 39
e 31 32
e 31 33
e 31 36
e 31 37
e 31 38
e 31 40
e 32 33
e 32 35
e 32 36
e 32 39
e 32 40
e 33 34
e 33 35
e 33 36
e 33 37
e 34 37
e 34 39
e 34 40
e 35 39
e 36 37
e 36 38
e 36 40
e 37 38
e 37 40
e 39 40
