c G(N,p), N=60, p=0.5, seed=2086
p edge 60 918
e 1 2
e 1 3
e 1 5
e 1 6
e 1 7
e 1 11
e 1 13
e 1 14
e 1 18
e 1 19
e 1 20
e 1 21
e 1 22
e 1 24
e 1 29
e 1 30
e 1 32
e 1 33
e 1 34
e 1 35
e 1 36
e 1 40
e 1 48
e 1 50
e 1 51
e 1 52
e 1 56
e 1 59
e 1 60
e 2 4
e 2 6
e 2 7
e 2 8
e 2 9
e 2 11
e 2 13
e 2 15
e 2 17
e 2 19
e 2 20
e 2 21
e 2 23
e 2 24
e 2 26
e 2 28
e 2 29
e 2 30
e 2 31
e 2 32
e 2 33
e 2 36
e 2 37
e 2 38
e 2 41
e 2 42
e 2 43
e 2 45
e 2 46
e 2 47
e 2 48
e 2 53
e 2 55
e 2 57
e 2 59
e 2 60
e 3 6
e 3 8
e 3 9
e 3 10
e 3 15
e 3 16
e 3 17
e 3 18
e 3 22
e 3 25
e 3 26
e 3 33
e 3 34
e 3 35
e 3 38
e 3 39
e 3 41
e 3 42
e 3 45
e 3 46
e 3 47
e 3 48
e 3 49
e 3 50
e 3 55
e 3 56
e 3 57
e 3 58
e 4 6
e 4 7
e 4 8
e 4 12
e 4 15
e 4 16
e 4 17
e 4 18
e 4 20
e 4 21
e 4 23
e 4 26
e 4 27
e 4 28
e 4 29
e 4 31
e 4 35
e 4 37
e 4 39
e 4 40
e 4 42
e 4 44
e 4 45
e 4 48
e 4 49
e 4 51
e 4 52
e 4 60
e 5 9
e 5 10
e 5 11
e 5 13
e 5 14
e 5 16
e 5 17
e 5 19
e 5 20
e 5 22
e 5 23
e 5 25
e 5 30
e 5 32
e 5 33
e 5 36
e 5 40
e 5 41
e 5 42
e 5 47
e 5 49
e 5 50
e 5 53
e 5 55
e 5 57
e 5 58
e 6 7
e 6 13
e 6 14
e 6 15
e 6 18
e 6 19
e 6 23
e 6 24
e 6 27
e 6 29
e 6 32
e 6 33
e 6 34
e 6 37
e 6 38
e 6 41
e 6 42
e 6 44
e 6 45
e 6 46
e 6 48
e 6 51
e 6 52
e 6 53
e 6 57
e 6 58
e 6 59
e 7 8
e 7 9
e 7 10
e 7 11
e 7 12
e 7 13
e 7 14
e 7 15
e 7 16
e 7 17
e 7 19
e 7 20
e 7 22
e 7 23
e 7 26
e 7 28
e 7 29
e 7 30
e 7 32
e 7 35
e 7 37
e 7 38
e 7 39
e 7 45
e 7 47
e 7 49
e 7 53
e 7 54
e 7 56
e 7 57
e 8 10
e 8 11
e 8 13
e 8 14
e 8 16
e 8 18
e 8 20
e 8 21
e 8 23
e 8 25
e 8 26
e 8 31
e 8 32
e 8 34
e 8 37
e 8 38
e 8 39
e 8 40
e 8 42
e 8 45
e 8 46
e 8 50
e 8 51
e 8 52
e 8 53
e 8 54
e 8 55
e 8 56
e 9 11
e 9 12
e 9 13
e 9 14
e 9 16
e 9 17
e 9 20
e 9 23
e 9 26
e 9 28
e 9 30
e 9 33
e 9 34
e 9 36
e 9 38
e 9 42
e 9 44
e 9 45
e 9 46
e 9 48
e 9 49
e 9 51
e 9 54
e 9 55
e 9 57
e 9 58
e 9 60
e 10 11
e 10 12
e 10 15
e 10 21
e 10 24
e 10 27
e 10 28
e 10 31
e 10 32
e 10 34
e 10 37
e 10 39
e 10 40
e 10 42
e 10 44
e 10 45
e 10 46
e 10 47
e 10 48
e 10 49
e 10 50
e 10 51
e 10 53
e 10 56
e 10 57
e 10 60
e 11 13
e 11 17
e 11 18
e 11 20
e 11 21
e 11 23
e 11 26
e 11 27
e 11 29
e 11 30
e 11 32
e 11 34
e 11 35
e 11 36
e 11 38
e 11 39
e 11 40
e 11 41
e 11 42
e 11 44
e 11 46
e 11 47
e 11 50
e 11 51
e 11 52
e 11 53
e 11 56
e 11 57
e 11 58
e 11 59
e 11 60
e 12 13
e 12 15
e 12 17
e 12 18
e 12 19
e 12 20
e 12 26
e 12 27
e 12 29
e 12 32
e 12 33
e 12 34
e 12 37
e 12 40
e 12 41
e 12 42
e 12 43
e 12 45
e 12 46
e 12 48
e 12 49
e 12 53
e 12 54
e 12 55
e 12 56
e 12 59
e 12 60
e 13 17
e 13 18
e 13 20
e 13 22
e 13 23
e 13 24
e 13 25
e 13 27
e 13 29
e 13 30
e 13 33
e 13 36
e 13 37
e 13 38
e 13 39
e 13 40
e 13 43
e 13 49
e 13 50
e 13 51
e 13 52
e 13 56
e 13 58
e 13 59
e 13 60
e 14 16
e 14 17
e 14 18
e 14 20
e 14 21
e 14 26
e 14 27
e 14 29
e 14 30
e 14 33
e 14 36
e 14 37
e 14 39
e 14 40
e 14 41
e 14 46
e 14 49
e 14 50
e 14 51
e 14 54
e 14 57
e 14 60
e 15 16
e 15 18
e 15 19
e 15 23
e 15 24
e 15 25
e 15 26
e 15 27
e 15 28
e 15 29
e 15 31
e 15 32
e 15 34
e 15 35
e 15 36
e 15 38
e 15 45
e 15 48
e 15 49
e 15 52
e 15 53
e 15 54
e 15 58
e 15 59
e 16 17
e 16 19
e 16 20
e 16 24
e 16 25
e 16 26
e 16 27
e 16 28
e 16 31
e 16 32
e 16 33
e 16 34
e 16 37
e 16 38
e 16 39
e 16 41
e 16 43
e 16 48
e 16 51
e 16 53
e 16 56
e 16 58
e 16 59
e 16 60
e 17 19
e 17 20
e 17 23
e 17 26
e 17 29
e 17 30
e 17 31
e 17 33
e 17 35
e 17 36
e 17 38
e 17 40
e 17 41
e 17 42
e 17 43
e 17 44
e 17 45
e 17 46
e 17 47
e 17 48
e 17 49
e 17 50
e 17 51
e 17 52
e 17 55
e 17 56
e 17 57
e 17 58
e 18 21
e 18 25
e 18 28
e 18 32
e 18 33
e 18 35
e 18 36
e 18 37
e 18 42
e 18 43
e 18 45
e 18 46
e 18 47
e 18 48
e 18 49
e 18 51
e 18 52
e 18 54
e 18 55
e 18 60
e 19 20
e 19 21
e 19 22
e 19 23
e 19 24
e 19 26
e 19 31
e 19 32
e 19 33
e 19 34
e 19 37
e 19 38
e 19 41
e 19 42
e 19 43
e 19 44
e 19 45
e 19 46
e 19 47
e 19 50
e 19 53
e 19 60
e 20 24
e 20 26
e 20 28
e 20 29
e 20 30
e 20 31
e 20 32
e 20 37
e 20 40
e 20 44
e 20 46
e 20 49
e 20 52
e 20 53
e 20 54
e 20 55
e 20 56
e 20 58
e 21 23
e 21 24
e 21 26
e 21 27
e 21 28
e 21 29
e 21 32
e 21 34
e 21 36
e 21 39
e 21 40
e 21 41
e 21 44
e 21 45
e 21 46
e 21 47
e 21 51
e 21 53
e 21 56
e 21 57
e 21 60
e 22 26
e 22 27
e 22 29
e 22 34
e 22 36
e 22 40
e 22 41
e 22 43
e 22 44
e 22 45
e 22 46
e 22 47
e 22 49
e 22 56
e 22 57
e 22 58
e 22 59
e 23 28
e 23 29
e 23 34
e 23 36
e 23 38
e 23 44
e 23 45
e 23 46
e 23 49
e 23 51
e 23 52
e 23 53
e 23 55
e 23 58
e 23 59
e 24 26
e 24 27
e 24 28
e 24 29
e 24 30
e 24 37
e 24 39
e 24 40
e 24 42
e 24 44
e 24 45
e 24 47
e 24 49
e 24 50
e 24 53
e 24 55
e 24 56
e 24 60
e 25 26
e 25 30
e 25 31
e 25 33
e 25 34
e 25 35
e 25 36
e 25 38
e 25 40
e 25 41
e 25 42
e 25 43
e 25 46
e 25 47
e 25 49
e 25 52
e 25 54
e 25 55
e 25 56
e 25 58
e 25 59
e 26 27
e 26 28
e 26 30
e 26 36
e 26 37
e 26 39
e 26 46
e 26 47
e 26 48
e 26 49
e 26 50
e 26 51
e 26 52
e 26 53
e 26 57
e 26 58
e 26 59
e 27 28
e 27 30
e 27 32
e 27 35
e 27 36
e 27 38
e 27 39
e 27 40
e 27 41
e 27 46
e 27 47
e 27 52
e 27 53
e 27 54
e 27 55
e 27 57
e 27 58
e 28 29
e 28 30
e 28 31
e 28 32
e 28 33
e 28 34
e 28 35
e 28 38
e 28 39
e 28 40
e 28 49
e 28 52
e 28 53
e 28 56
e 28 58
e 28 59
e 29 30
e 29 32
e 29 33
e 29 34
e 29 35
e 29 36
e 29 38
e 29 40
e 29 41
e 29 44
e 29 47
e 29 48
e 29 50
e 29 51
e 29 53
e 29 54
e 29 55
e 29 56
e 29 59
e 29 60
e 30 33
e 30 36
e 30 37
e 30 39
e 30 41
e 30 42
e 30 45
e 30 48
e 30 51
e 30 58
e 30 59
e 31 36
e 31 39
e 31 40
e 31 42
e 31 45
e 31 46
e 31 48
e 31 49
e 31 51
e 31 53
e 31 54
e 31 56
e 31 57
e 31 58
e 32 35
e 32 36
e 32 38
e 32 40
e 32 41
e 32 42
e 32 45
e 32 47
e 32 49
e 32 52
e 32 53
e 32 54
e 32 55
e 32 56
e 32 58
e 32 60
e 33 34
e 33 35
e 33 36
e 33 38
e 33 41
e 33 43
e 33 44
e 33 46
e 33 47
e 33 48
e 33 49
e 33 54
e 33 56
e 33 57
e 34 35
e 34 38
e 34 41
e 34 43
e 34 47
e 34 48
e 34 49
e 34 52
e 34 54
e 34 59
e 34 60
e 35 36
e 35 38
e 35 41
e 35 42
e 35 43
e 35 45
e 35 48
e 35 49
e 35 50
e 35 52
e 35 53
e 35 56
e 35 58
e 36 37
e 36 39
e 36 41
e 36 43
e 36 44
e 36 46
e 36 47
e 36 48
e 36 49
e 36 50
e 36 53
e 36 54
e 36 55
e 36 59
e 37 38
e 37 40
e 37 43
e 37 45
e 37 46
e 37 51
e 37 52
e 37 53
e 37 55
e 37 56
e 37 57
e 38 41
e 38 42
e 38 45
e 38 47
e 38 49
e 38 50
e 38 51
e 38 53
e 38 54
e 38 55
e 38 57
e 38 58
e 38 59
e 38 60
e 39 40
e 39 47
e 39 48
e 39 49
e 39 54
e 39 55
e 39 56
e 39 57
e 39 58
e 40 43
e 40 48
e 40 49
e 40 51
e 40 54
e 40 55
e 40 56
e 40 58
e 40 60
e 41 42
e 41 44
e 41 45
e 41 47
e 41 49
e 41 50
e 41 51
e 41 55
e 41 58
e 41 60
e 42 48
e 42 49
e 42 52
e 42 53
e 42 55
e 42 60
e 43 44
e 43 45
e 43 47
e 43 49
e 43 50
e 43 51
e 43 52
e 43 53
e 43 54
e 43 57
e 43 59
e 44 46
e 44 47
e 44 51
e 44 52
e 44 53
e 44 54
e 44 55
e 45 46
e 45 47
e 45 51
e 45 53
e 45 56
e 45 57
e 45 58
e 46 49
e 46 50
e 46 51
e 46 52
e 46 54
e 46 58
e 46 59
e 47 49
e 47 50
e 47 51
e 47 53
e 47 54
e 47 58
e 47 59
e 48 51
e 48 53
e 48 54
e 48 56
e 48 57
e 48 58
e 48 60
e 49 52
e 49 54
e 49 55
e 49 56
e 49 57
e 49 58
e 49 59
e 49 60
e 50 55
e 50 59
e 51 53
e 51 55
e 51 60
e 52 53
e 52 54
e 52 57
e 52 59
e 52 60
e 53 56
e 53 58
e 53 59
e 53 60
e 54 57
e 55 57
e 55 60
e 56 58
e 56 59
e 57 58
e 57 59
e 57 60
e 58 59
e 59 60
