c G(N,p), N=60, p=0.5, seed=3086
p edge 60 864
e 1 4
e 1 5
e 1 9
e 1 10
e 1 13
e 1 15
e 1 17
e 1 18
e 1 20
e 1 22
e 1 24
e 1 26
e 1 29
e 1 30
e 1 32
e 1 34
e 1 35
e 1 36
e 1 37
e 1 38
e 1 40
e 1 43
e 1 45
e 1 46
e 1 47
e 1 49
e 1 52
e 1 53
e 1 55
e 1 58
e 2 3
e 2 4
e 2 6
e 2 11
e 2 12
e 2 13
e 2 14
e 2 17
e 2 19
e 2 21
e 2 24
e 2 27
e 2 29
e 2 30
e 2 34
e 2 37
e 2 38
e 2 39
e 2 42
e 2 43
e 2 44
e 2 46
e 2 50
e 2 52
e 2 53
e 2 54
e 2 57
e 2 58
e 2 60
e 3 5
e 3 6
e 3 8
e 3 9
e 3 10
e 3 11
e 3 14
e 3 15
e 3 17
e 3 18
e 3 19
e 3 21
e 3 22
e 3 23
e 3 25
e 3 29
e 3 30
e 3 31
e 3 33
e 3 36
e 3 37
e 3 38
e 3 42
e 3 43
e 3 46
e 3 47
e 3 48
e 3 50
e 3 51
e 3 52
e 3 57
e 3 59
e 3 60
e 4 5
e 4 6
e 4 10
e 4 13
e 4 14
e 4 15
e 4 16
e 4 20
e 4 23
e 4 28
e 4 29
e 4 30
e 4 32
e 4 33
e 4 35
e 4 37
e 4 40
e 4 41
e 4 42
e 4 43
e 4 44
e 4 45
e 4 46
e 4 49
e 4 50
e 4 51
e 4 52
e 4 54
e 4 58
e 4 59
e 4 60
e 5 6
e 5 12
e 5 15
e 5 17
e 5 19
e 5 20
e 5 22
e 5 23
e 5 25
e 5 26
e 5 27
e 5 28
e 5 30
e 5 31
e 5 32
e 5 33
e 5 34
e 5 37
e 5 38
e 5 39
e 5 40
e 5 42
e 5 45
e 5 46
e 5 47
e 5 48
e 5 49
e 5 53
e 5 56
e 5 58
e 5 60
e 6 9
e 6 10
e 6 12
e 6 14
e 6 16
e 6 17
e 6 19
e 6 20
e 6 23
e 6 25
e 6 26
e 6 27
e 6 30
e 6 34
e 6 35
e 6 36
e 6 37
e 6 41
e 6 42
e 6 43
e 6 44
e 6 45
e 6 46
e 6 47
e 6 54
e 6 56
e 6 59
e 6 60
e 7 8
e 7 10
e 7 11
e 7 13
e 7 15
e 7 17
e 7 19
e 7 22
e 7 23
e 7 24
e 7 26
e 7 27
e 7 32
e 7 33
e 7 37
e 7 39
e 7 40
e 7 41
e 7 44
e 7 46
e 7 47
e 7 48
e 7 49
e 7 51
e 7 53
e 7 54
e 7 55
e 7 56
e 7 59
e 7 60
e 8 9
e 8 11
e 8 13
e 8 14
e 8 15
e 8 17
e 8 22
e 8 27
e 8 28
e 8 31
e 8 32
e 8 33
e 8 34
e 8 35
e 8 37
e 8 40
e 8 41
e 8 42
e 8 43
e 8 45
e 8 52
e 8 53
e 8 58
e 8 60
e 9 10
e 9 11
e 9 18
e 9 20
e 9 23
e 9 24
e 9 26
e 9 31
e 9 33
e 9 34
e 9 36
e 9 38
e 9 40
e 9 43
e 9 45
e 9 46
e 9 48
e 9 49
e 9 51
e 9 53
e 9 54
e 9 57
e 9 59
e 10 13
e 10 15
e 10 18
e 10 21
e 10 22
e 10 24
e 10 25
e 10 28
e 10 30
e 10 31
e 10 32
e 10 33
e 10 37
e 10 39
e 10 40
e 10 43
e 10 45
e 10 46
e 10 48
e 10 50
e 10 51
e 10 52
e 10 57
e 10 58
e 11 15
e 11 20
e 11 21
e 11 22
e 11 24
e 11 26
e 11 27
e 11 30
e 11 31
e 11 32
e 11 33
e 11 35
e 11 38
e 11 47
e 11 48
e 11 49
e 11 51
e 11 53
e 11 56
e 11 57
e 12 13
e 12 14
e 12 15
e 12 19
e 12 21
e 12 22
e 12 23
e 12 27
e 12 32
e 12 34
e 12 37
e 12 38
e 12 39
e 12 40
e 12 45
e 12 47
e 12 48
e 12 50
e 12 53
e 12 54
e 12 57
e 12 59
e 12 60
e 13 15
e 13 17
e 13 18
e 13 21
e 13 22
e 13 24
e 13 27
e 13 29
e 13 30
e 13 32
e 13 34
e 13 38
e 13 39
e 13 40
e 13 41
e 13 42
e 13 43
e 13 46
e 13 47
e 13 48
e 13 53
e 13 54
e 14 19
e 14 28
e 14 30
e 14 32
e 14 34
e 14 36
e 14 37
e 14 39
e 14 44
e 14 45
e 14 46
e 14 47
e 14 48
e 14 53
e 14 56
e 14 58
e 14 60
e 15 16
e 15 18
e 15 19
e 15 20
e 15 21
e 15 25
e 15 29
e 15 30
e 15 32
e 15 36
e 15 38
e 15 40
e 15 41
e 15 44
e 15 45
e 15 47
e 15 49
e 15 50
e 15 51
e 15 53
e 15 54
e 15 55
e 15 57
e 15 60
e 16 17
e 16 22
e 16 26
e 16 29
e 16 30
e 16 32
e 16 34
e 16 35
e 16 38
e 16 40
e 16 42
e 16 45
e 16 46
e 16 51
e 16 52
e 16 53
e 16 55
e 16 58
e 16 60
e 17 18
e 17 19
e 17 20
e 17 22
e 17 23
e 17 25
e 17 29
e 17 30
e 17 32
e 17 33
e 17 39
e 17 43
e 17 45
e 17 46
e 17 47
e 17 48
e 17 49
e 17 50
e 17 51
e 17 52
e 17 55
e 17 58
e 17 60
e 18 19
e 18 22
e 18 25
e 18 27
e 18 29
e 18 31
e 18 32
e 18 33
e 18 36
e 18 39
e 18 40
e 18 41
e 18 44
e 18 47
e 18 48
e 18 49
e 18 51
e 18 52
e 18 53
e 18 57
e 19 22
e 19 24
e 19 25
e 19 28
e 19 30
e 19 33
e 19 35
e 19 37
e 19 39
e 19 40
e 19 45
e 19 48
e 19 49
e 19 52
e 19 53
e 19 54
e 19 56
e 19 57
e 19 58
e 19 60
e 20 21
e 20 26
e 20 27
e 20 29
e 20 35
e 20 38
e 20 40
e 20 52
e 20 53
e 20 58
e 20 59
e 21 22
e 21 23
e 21 25
e 21 28
e 21 29
e 21 33
e 21 39
e 21 41
e 21 42
e 21 43
e 21 44
e 21 47
e 21 50
e 21 52
e 21 56
e 21 57
e 21 59
e 22 26
e 22 28
e 22 30
e 22 37
e 22 39
e 22 40
e 22 42
e 22 45
e 22 48
e 22 50
e 22 53
e 22 55
e 22 56
e 22 57
e 22 59
e 22 60
e 23 24
e 23 27
e 23 29
e 23 30
e 23 32
e 23 34
e 23 35
e 23 36
e 23 38
e 23 39
e 23 40
e 23 41
e 23 42
e 23 43
e 23 45
e 23 46
e 23 48
e 23 50
e 23 53
e 23 54
e 23 55
e 23 57
e 23 58
e 23 59
e 24 25
e 24 26
e 24 28
e 24 29
e 24 30
e 24 31
e 24 32
e 24 33
e 24 35
e 24 36
e 24 37
e 24 39
e 24 40
e 24 42
e 24 45
e 24 47
e 24 50
e 24 51
e 24 53
e 24 55
e 24 56
e 24 59
e 25 29
e 25 30
e 25 31
e 25 32
e 25 35
e 25 36
e 25 37
e 25 39
e 25 40
e 25 41
e 25 42
e 25 44
e 25 48
e 25 52
e 25 53
e 25 57
e 25 59
e 26 28
e 26 32
e 26 34
e 26 35
e 26 40
e 26 41
e 26 50
e 26 52
e 26 54
e 26 58
e 26 60
e 27 29
e 27 30
e 27 31
e 27 32
e 27 40
e 27 42
e 27 47
e 27 48
e 27 52
e 27 54
e 27 55
e 27 57
e 27 58
e 27 60
e 28 29
e 28 31
e 28 33
e 28 34
e 28 35
e 28 36
e 28 40
e 28 41
e 28 42
e 28 44
e 28 45
e 28 48
e 28 50
e 28 52
e 28 53
e 28 54
e 28 57
e 28 58
e 28 59
e 29 44
e 29 46
e 29 47
e 29 49
e 29 50
e 29 51
e 29 52
e 29 57
e 29 59
e 29 60
e 30 31
e 30 32
e 30 33
e 30 34
e 30 36
e 30 39
e 30 40
e 30 41
e 30 42
e 30 44
e 30 46
e 30 51
e 30 55
e 30 56
e 30 60
e 31 32
e 31 35
e 31 40
e 31 41
e 31 45
e 31 46
e 31 47
e 31 49
e 31 51
e 31 52
e 31 55
e 31 56
e 31 58
e 31 60
e 32 34
e 32 38
e 32 41
e 32 44
e 32 45
e 32 47
e 32 48
e 32 50
e 32 52
e 32 53
e 32 54
e 32 56
e 32 57
e 32 58
e 32 59
e 32 60
e 33 35
e 33 36
e 33 40
e 33 41
e 33 42
e 33 43
e 33 45
e 33 47
e 33 50
e 33 54
e 33 55
e 33 56
e 33 58
e 33 59
e 34 35
e 34 37
e 34 38
e 34 40
e 34 41
e 34 42
e 34 44
e 34 46
e 34 48
e 34 50
e 34 51
e 34 54
e 34 56
e 34 57
e 34 58
e 34 59
e 35 37
e 35 38
e 35 40
e 35 41
e 35 52
e 35 55
e 35 56
e 35 57
e 35 58
e 35 60
e 36 43
e 36 44
e 36 45
e 36 48
e 36 49
e 36 50
e 36 51
e 36 54
e 36 55
e 36 58
e 37 38
e 37 39
e 37 41
e 37 43
e 37 45
e 37 46
e 37 47
e 37 49
e 37 50
e 37 51
e 37 52
e 37 54
e 37 56
e 37 60
e 38 39
e 38 46
e 38 49
e 38 50
e 38 52
e 38 54
e 38 55
e 38 56
e 38 57
e 38 58
e 38 60
e 39 43
e 39 44
e 39 45
e 39 46
e 39 48
e 39 49
e 39 52
e 39 56
e 39 57
e 39 58
e 39 60
e 40 42
e 40 44
e 40 46
e 40 48
e 40 49
e 40 50
e 40 51
e 40 52
e 40 55
e 40 56
e 40 59
e 41 42
e 41 43
e 41 46
e 41 48
e 41 49
e 41 51
e 41 53
e 41 54
e 41 55
e 41 56
e 41 58
e 41 60
e 42 45
e 42 54
e 42 56
e 42 57
e 42 60
e 43 45
e 43 46
e 43 47
e 43 50
e 43 52
e 43 55
e 43 58
e 44 45
e 44 46
e 44 47
e 44 48
e 44 49
e 44 50
e 44 53
e 44 55
e 44 57
e 44 58
e 44 60
e 45 46
e 45 48
e 45 49
e 45 52
e 45 56
e 45 57
e 46 47
e 46 48
e 46 50
e 46 51
e 46 52
e 46 54
e 46 55
e 46 59
e 47 48
e 47 50
e 47 51
e 47 58
e 48 50
e 48 51
e 48 57
e 48 59
e 49 51
e 49 58
e 49 59
e 50 51
e 50 52
e 50 54
e 50 56
e 50 57
e 50 59
e 51 52
e 51 54
e 51 55
e 51 56
e 51 58
e 51 59
e 51 60
e 52 53
e 52 54
e 52 55
e 52 59
e 53 55
e 53 57
e 53 59
e 54 55
e 55 56
e 55 57
e 55 59
e 56 59
e 56 60
e 57 59
e 58 59
e 58 60
e 59 60
