c G(N,p), N=20, p=0.5, seed=2046
p edge 20 84
e 1 2
e 1 3
e 1 7
e 1 8
e 1 9
e 1 10
e 1 11
e 1 13
e 1 14
e 1 15
e 1 16
e 1 17
e 1 19
e 2 3
e 2 4
e 2 5
e 2 7
e 2 13
e 2 14
e 2 15
e 2 16
e 2 17
e 2 18
e 2 19
e 3 4
e 3 6
e 3 7
e 3 10
e 3 11
e 3 12
e 3 13
e 3 15
e 3 16
e 3 17
e 3 18
e 4 6
e 4 8
e 4 10
e 4 14
e 4 16
e 4 17
e 4 19
e 5 16
e 5 17
e 5 20
e 6 8
e 6 10
e 6 11
e 6 13
e 6 14
e 6 15
e 6 19
e 7 9
e 7 10
e 7 12
e 7 14
e 7 17
e 8 10
e 8 13
e 8 16
e 9 10
e 9 13
e 9 14
e 9 15
e 10 12
e 10 13
e 10 14
e 10 15
e 10 16
e 10 20
e 11 12
e 11 13
e 11 14
e 12 14
e 12 15
e 12 16
e 12 20
e 13 14
e 15 16
e 15 17
e 15 18
e 16 18
e 16 20
e 18 20
